(set-option :produce-models true)
(set-logic QF_UF)
(declare-fun p12() Bool)
(declare-fun p3() Bool)
(declare-fun p5() Bool)
(declare-fun p0() Bool)
(declare-fun p11() Bool)
(declare-fun p14() Bool)
(declare-fun p7() Bool)
(declare-fun p8() Bool)
(declare-fun p1() Bool)
(declare-fun p10() Bool)
(declare-fun p6() Bool)
(declare-fun p9() Bool)
(declare-fun p13() Bool)
(declare-fun p4() Bool)
(declare-fun p2() Bool)
(assert
(and (or p12 p3 (not p12)) (or (not p5) (not p0) (not p11)) (or p14 (not p7) (not p8)) (or p7 p1 p10) (or (not p8) (not p3) p6) (or (not p14) p6 p9) (or p11 p12 p9) (or p9 p3 (not p3)) (or (not p9) (not p8) (not p13)) (or p4 (not p4) p14) (or p7 p9 (not p2)) (or p10 p1 p12) (or p1 p4 (not p2)) (or (not p9) (not p9) p3) (or p5 p7 (not p11)) (or p2 p6 (not p10)) (or p9 (not p11) p0) (or (not p11) p4 p12) (or p4 p5 p13) (or (not p6) p8 p14) (or p13 (not p4) (not p12)) (or (not p13) (not p13) (not p10)) (or (not p2) p1 p9) (or (not p3) p1 p7) (or p11 (not p4) p6) (or p9 (not p9) p14) (or p12 (not p13) p5) (or p6 (not p10) p9) (or (not p13) p11 p7) (or p6 (not p5) p3) (or (not p5) (not p14) (not p9)) (or p5 (not p4) (not p5)) (or p4 (not p1) (not p7)) (or (not p10) p0 (not p1)) (or p12 (not p7) p6) (or (not p13) p7 p13) (or (not p10) (not p1) (not p9)) (or p7 p7 (not p7)) (or (not p7) p5 (not p7)) (or (not p0) (not p4) p11) (or p8 p3 p1) (or p8 p10 (not p0)) (or p7 (not p2) p13) (or (not p8) p12 p0) (or (not p14) (not p4) (not p10)) (or p0 (not p13) (not p11)) (or (not p9) (not p3) (not p0)) (or p7 p6 (not p5)) (or (not p3) p2 p2) (or p1 p14 p9) (or p6 p8 p9) (or (not p2) p10 (not p11)) (or p5 p0 (not p2)) (or p2 (not p1) (not p5)) (or p10 (not p8) p12) (or p1 (not p7) (not p12)) (or (not p6) p3 p9) (or (not p3) (not p8) p9) (or p1 p12 (not p9)) (or p2 p7 p10) (or (not p5) (not p5) (not p1)) (or (not p6) p9 (not p2)) (or (not p14) (not p12) (not p4)) (or (not p14) (not p12) p5) (or p8 (not p8) (not p3)) (or p1 p3 p2) (or (not p9) p0 (not p7)) (or p0 p3 (not p3)) (or p14 (not p5) (not p10)))
)
(check-sat)
(get-model)
